nNurses = 54;
nHours = 40;
minHours = 10;
maxHours = 19;
maxConsec = 10;
maxPresence = 35;
demand = [17, 15, 19, 18, 17, 14, 16, 14, 12, 17, 12, 16, 19, 16, 17, 14, 19, 15, 10, 12, 13, 8, 8, 13, 18, 23, 24, 22, 18, 22, 22, 17, 20, 23, 20, 22, 26, 24, 23, 21];
